WARNING: for repeatability, setting FPU to use double precision
============================[ Problem Statistics ]=============================
|                                                                             |
|  Number of variables:           294                                         |
|  Number of clauses:            1220                                         |
|  Parse time:                   0.00 s                                       |
|                                                                             |
============================[ Search Statistics ]==============================
| Conflicts |          ORIGINAL         |          LEARNT          | Progress |
|           |    Vars  Clauses Literals |    Limit  Clauses Lit/Cl |          |
===============================================================================
|       100 |     294     1220     3607 |      447      100     12 |  0.002 % |
|       250 |     294     1220     3607 |      492      250     12 |  0.005 % |
|       475 |     294     1220     3607 |      541      475     11 |  0.001 % |
|       812 |     294     1220     3607 |      595      523     11 |  0.001 % |
|      1318 |     294     1220     3607 |      654      416      9 |  0.001 % |
|      2077 |     294     1220     3607 |      720      501     10 |  0.001 % |
|      3216 |     294     1220     3607 |      792      529      8 |  0.005 % |
|      4924 |     294     1220     3607 |      871      607      8 |  0.001 % |
|      7486 |     294     1220     3607 |      958      497      7 |  0.001 % |
|     11330 |     290     1181     3491 |     1054      536      8 |  1.362 % |
===============================================================================
restarts              : 52
conflicts             : 11880          (110000 /sec)
decisions             : 14475          (0.00 % random) (134028 /sec)
propagations          : 609249         (5641194 /sec)
conflict literals     : 122073         (29.46 % deleted)
Memory used           : 19.00 MB
CPU time              : 0.108 s

UNSATISFIABLE
